
===== New CPLEX run =====
Instance: /home/yorig/tuner/mpils-tests/instances/miplib/easy/lotsize.mps
Config: /scratch/yorig/mpils-results-grid-ticks-10000/easy/16proc/seed-9/4_lotsize_seed-9_20260425_202405/expansion/config_param_CPXPARAM_MIP_Strategy_Dive_1_iter_1.prm
========================

Selected objective sense:  MINIMIZE
Selected objective  name:  R1921
Selected RHS        name:  B
Selected bound      name:  BOUND
Version identifier: 22.1.2.0 | 2024-11-26 | 0edbb82fd
CPXPARAM_Threads                                 8
CPXPARAM_Parallel                                1
CPXPARAM_MIP_Cuts_Cliques                        -1
CPXPARAM_MIP_Cuts_FlowCovers                     2
CPXPARAM_MIP_Cuts_Implied                        2
CPXPARAM_MIP_Cuts_GUBCovers                      -1
CPXPARAM_MIP_Limits_GomoryCand                   50
CPXPARAM_MIP_Cuts_Gomory                         1
CPXPARAM_MIP_Cuts_PathCut                        -1
CPXPARAM_MIP_Cuts_MIRCut                         2
CPXPARAM_MIP_Cuts_Disjunctive                    -1
CPXPARAM_Emphasis_MIP                            1
CPXPARAM_MIP_Strategy_Dive                       1
CPXPARAM_DetTimeLimit                            10000
Tried aggregator 1 time.
MIP Presolve eliminated 595 rows and 0 columns.
MIP Presolve added 1190 rows and 0 columns.
MIP Presolve modified 10 coefficients.
Reduced MIP has 2515 rows, 2985 columns, and 7755 nonzeros.
Reduced MIP has 1195 binaries, 0 generals, 0 SOSs, and 0 indicators.
Presolve time = 0.00 sec. (4.53 ticks)
Probing fixed 0 vars, tightened 5487 bounds.
Probing time = 0.01 sec. (18.38 ticks)
Tried aggregator 2 times.
Detecting symmetries...
MIP Presolve modified 1206 coefficients.
Aggregator did 10 substitutions.
Reduced MIP has 2505 rows, 2975 columns, and 7735 nonzeros.
Reduced MIP has 1195 binaries, 0 generals, 0 SOSs, and 0 indicators.
Presolve time = 0.00 sec. (6.66 ticks)
Probing fixed 0 vars, tightened 2401 bounds.
Probing time = 0.00 sec. (6.41 ticks)
Clique table members: 190.
MIP emphasis: integer feasibility.
MIP search method: dynamic search.
Parallel mode: deterministic, using up to 8 threads.
Root relaxation solution time = 0.01 sec. (9.71 ticks)

        Nodes                                         Cuts/
   Node  Left     Objective  IInf  Best Integer    Best Bound    ItCnt     Gap

      0     0   348385.3466   472                 348385.3466      882         
      0     0   572313.5958   462                   Cuts: 726     1889         
      0     0   831822.5913   565                   Cuts: 726     2717         
      0     0   945966.5491   640                   Cuts: 726     3332         
*     0+    0                       1.01740e+07   945966.5491            90.70%
*     0+    0                      7973370.0000   945966.5491            88.14%
Detecting symmetries...
      0     2   945966.5491   640  7973370.0000   945966.5491     3332   88.14%
Elapsed time = 0.36 sec. (495.68 ticks, tree = 0.02 MB, solutions = 2)
    256   213  1072611.0171   626  7973370.0000   946292.4723    11421   88.13%
    750   641  1633154.7901   282  7973370.0000   946292.4723    21997   88.13%
*  1353+ 1022                      2729052.0000   946292.4723            65.33%
*  1355  1012      integral     0  2532089.0000   946292.4723    30135   62.63%
*  1443  1232      integral     0  2358401.0000   946292.4723    33546   59.88%
*  1451+ 1231                      2338401.0000   946292.4723            59.53%

Performing restart 1

Repeating presolve.
Tried aggregator 1 time.
MIP Presolve modified 1211 coefficients.
Reduced MIP has 2505 rows, 2975 columns, and 7735 nonzeros.
Reduced MIP has 1195 binaries, 0 generals, 0 SOSs, and 0 indicators.
Presolve time = 0.00 sec. (3.84 ticks)
Tried aggregator 1 time.
MIP Presolve modified 1032 coefficients.
Reduced MIP has 2505 rows, 2975 columns, and 7735 nonzeros.
Reduced MIP has 1195 binaries, 0 generals, 0 SOSs, and 0 indicators.
Presolve time = 0.00 sec. (5.12 ticks)
Represolve time = 0.02 sec. (20.07 ticks)
   1768     0  1119332.9937   714  2338401.0000     Cuts: 726    46791   52.13%
   1768     0  1210597.6383   693  2338401.0000     Cuts: 726    47618   48.23%
   1768     0  1263216.5928   703  2338401.0000     Cuts: 726    48511   45.98%
   1768     2  1263216.5928   703  2338401.0000  1263216.5928    48511   45.98%
   1778    12  1310725.0967   623  2338401.0000  1263224.5478    49065   45.98%
   1799    33  1361690.0049   597  2338401.0000  1263224.5478    49854   45.98%
   1836    70  1465608.7742   569  2338401.0000  1263263.7219    51262   45.98%
   1870   101  1519804.0420   424  2338401.0000  1263263.7219    52368   45.98%
   1900   132  1596671.3872   351  2338401.0000  1263263.7219    56914   45.98%
*  2056+  246                      2011139.0000  1263263.7219            37.19%
   2482   571  1500752.1168   411  2011139.0000  1263263.7219    87118   37.19%
Elapsed time = 4.75 sec. (5549.51 ticks, tree = 0.79 MB, solutions = 8)
*  2652+  590                      1766967.0000  1263263.7219            28.51%
*  2711+  709                      1749443.0000  1263263.7219            27.79%
*  2889+  754                      1609791.0000  1263263.7219            21.53%
*  2965+  754                      1597536.0000  1263263.7219            20.92%
*  3010+  754                      1591282.0000  1263263.7219            20.61%
*  3043+  754                      1590741.0000  1263263.7219            20.59%
   3266   923  1447890.9520   566  1590741.0000  1263263.7219   122620   20.59%
   3877  1490  1498138.5805   523  1590741.0000  1263263.7219   167340   20.59%
   4346  1927  1537887.3394   385  1590741.0000  1263263.7219   197182   20.59%
   4615  2201        cutoff        1590741.0000  1263263.7219   227656   20.59%

Cover cuts applied:  23
Implied bound cuts applied:  16
Flow cuts applied:  1111
Mixed integer rounding cuts applied:  1331
Multi commodity flow cuts applied:  20
Lift and project cuts applied:  9
Gomory fractional cuts applied:  3

Root node processing (before b&c):
  Real time             =    0.36 sec. (493.55 ticks)
Parallel b&c, 8 threads:
  Real time             =    7.73 sec. (9509.66 ticks)
  Sync time (average)   =    0.60 sec.
  Wait time (average)   =    0.00 sec.
                          ------------
Total (root+branch&cut) =    8.09 sec. (10003.21 ticks)
Gap: 20.59%
Upper bound: 1.59074e+06
Lower bound: 1.26326e+06
End of CPLEX run. Time: 8.09575 seconds

===== New CPLEX run =====
Instance: /home/yorig/tuner/mpils-tests/instances/miplib/easy/lotsize.mps
Config: /scratch/yorig/mpils-results-grid-ticks-10000/easy/16proc/seed-9/4_lotsize_seed-9_20260425_202405/expansion/config_param_CPXPARAM_MIP_Strategy_Dive_2_iter_1.prm
========================

Selected objective sense:  MINIMIZE
Selected objective  name:  R1921
Selected RHS        name:  B
Selected bound      name:  BOUND
Version identifier: 22.1.2.0 | 2024-11-26 | 0edbb82fd
CPXPARAM_Threads                                 8
CPXPARAM_Parallel                                1
CPXPARAM_MIP_Cuts_Cliques                        -1
CPXPARAM_MIP_Cuts_FlowCovers                     2
CPXPARAM_MIP_Cuts_Implied                        2
CPXPARAM_MIP_Cuts_GUBCovers                      -1
CPXPARAM_MIP_Limits_GomoryCand                   50
CPXPARAM_MIP_Cuts_Gomory                         1
CPXPARAM_MIP_Cuts_PathCut                        -1
CPXPARAM_MIP_Cuts_MIRCut                         2
CPXPARAM_MIP_Cuts_Disjunctive                    -1
CPXPARAM_Emphasis_MIP                            1
CPXPARAM_MIP_Strategy_Dive                       2
CPXPARAM_DetTimeLimit                            10000
Tried aggregator 1 time.
MIP Presolve eliminated 595 rows and 0 columns.
MIP Presolve added 1190 rows and 0 columns.
MIP Presolve modified 10 coefficients.
Reduced MIP has 2515 rows, 2985 columns, and 7755 nonzeros.
Reduced MIP has 1195 binaries, 0 generals, 0 SOSs, and 0 indicators.
Presolve time = 0.00 sec. (4.53 ticks)
Probing fixed 0 vars, tightened 5487 bounds.
Probing time = 0.01 sec. (18.38 ticks)
Tried aggregator 2 times.
Detecting symmetries...
MIP Presolve modified 1206 coefficients.
Aggregator did 10 substitutions.
Reduced MIP has 2505 rows, 2975 columns, and 7735 nonzeros.
Reduced MIP has 1195 binaries, 0 generals, 0 SOSs, and 0 indicators.
Presolve time = 0.00 sec. (6.66 ticks)
Probing fixed 0 vars, tightened 2401 bounds.
Probing time = 0.00 sec. (6.41 ticks)
Clique table members: 190.
MIP emphasis: integer feasibility.
MIP search method: dynamic search.
Parallel mode: deterministic, using up to 8 threads.
Root relaxation solution time = 0.01 sec. (9.71 ticks)

        Nodes                                         Cuts/
   Node  Left     Objective  IInf  Best Integer    Best Bound    ItCnt     Gap

      0     0   348385.3466   472                 348385.3466      882         
      0     0   572313.5958   462                   Cuts: 726     1889         
      0     0   831822.5913   565                   Cuts: 726     2717         
      0     0   945966.5491   640                   Cuts: 726     3332         
*     0+    0                       1.01740e+07   945966.5491            90.70%
*     0+    0                      7973370.0000   945966.5491            88.14%
Detecting symmetries...
      0     2   945966.5491   640  7973370.0000   945966.5491     3332   88.14%
Elapsed time = 0.36 sec. (495.68 ticks, tree = 0.02 MB, solutions = 2)
    114   100  1053721.3526   675  7973370.0000   946686.0092    12812   88.13%
    494   411  1093967.3307   592  7973370.0000   946686.0092    18891   88.13%
    791   670  1234363.8291   491  7973370.0000   946686.0092    23648   88.13%
   1217  1045  1207623.1107   423  7973370.0000   946686.0092    31241   88.13%
   1703  1484  1430761.4767   375  7973370.0000   946686.0092    38672   88.13%

Performing restart 1

Repeating presolve.
Tried aggregator 1 time.
MIP Presolve modified 1211 coefficients.
Reduced MIP has 2505 rows, 2975 columns, and 7735 nonzeros.
Reduced MIP has 1195 binaries, 0 generals, 0 SOSs, and 0 indicators.
Presolve time = 0.00 sec. (3.84 ticks)
Tried aggregator 1 time.
MIP Presolve modified 1032 coefficients.
Reduced MIP has 2505 rows, 2975 columns, and 7735 nonzeros.
Reduced MIP has 1195 binaries, 0 generals, 0 SOSs, and 0 indicators.
Presolve time = 0.00 sec. (5.12 ticks)
Represolve time = 0.02 sec. (18.37 ticks)
*  1734+    0                      6644005.0000  1005488.4859            84.87%
   1734     0  1136418.8319   697  6644005.0000     Cuts: 726    46064   82.90%
   1734     0  1218803.2241   688  6644005.0000     Cuts: 726    46899   81.66%
   1734     0  1267307.1352   695  6644005.0000     Cuts: 726    47643   80.93%
   1734     2  1267307.1352   695  6644005.0000  1267307.1352    47643   80.93%
   1759    27  1284646.5104   599  6644005.0000  1267332.3624    48505   80.93%
   1787    55  1303444.9553   566  6644005.0000  1267332.3624    49459   80.93%
   1818     6  1272907.1472   672  6644005.0000  1267332.3624    47870   80.93%
   1898   110  1345926.5895   728  6644005.0000  1268247.0996    69529   80.91%
Elapsed time = 4.20 sec. (5326.66 ticks, tree = 0.09 MB, solutions = 3)
   2494   480  1359206.0229   708  6644005.0000  1273974.3999   100613   80.83%
   3299  1299  1510106.4415   398  6644005.0000  1274403.8863   145134   80.82%
*  4260+ 2027                      1694622.0000  1274403.8863            24.80%
*  4296  2232      integral     0  1687784.0000  1274403.8863   192877   24.49%
*  4305  2274      integral     0  1680083.0000  1274403.8863   195691   24.15%
*  4508+ 2305                      1653618.0000  1274403.8863            22.93%
*  4516+ 2305                      1576073.0000  1274403.8863            19.14%
*  4519+ 2305                      1575095.0000  1274403.8863            19.09%
*  4525+ 2305                      1574091.0000  1274403.8863            19.04%
   4990  2122  1382278.9121   637  1574091.0000  1280360.4211   232297   18.66%
   5906  2926  1565286.9434   435  1574091.0000  1281934.7070   273408   18.56%

Cover cuts applied:  21
Implied bound cuts applied:  15
Flow cuts applied:  855
Mixed integer rounding cuts applied:  1105
Multi commodity flow cuts applied:  19
Lift and project cuts applied:  8
Gomory fractional cuts applied:  1

Root node processing (before b&c):
  Real time             =    0.36 sec. (493.44 ticks)
Parallel b&c, 8 threads:
  Real time             =    7.93 sec. (9509.90 ticks)
  Sync time (average)   =    0.93 sec.
  Wait time (average)   =    0.00 sec.
                          ------------
Total (root+branch&cut) =    8.29 sec. (10003.34 ticks)
Gap: 18.55%
Upper bound: 1.57409e+06
Lower bound: 1.28203e+06
End of CPLEX run. Time: 8.29417 seconds

===== New CPLEX run =====
Instance: /home/yorig/tuner/mpils-tests/instances/miplib/easy/lotsize.mps
Config: /scratch/yorig/mpils-results-grid-ticks-10000/easy/16proc/seed-9/4_lotsize_seed-9_20260425_202405/expansion/config_param_CPXPARAM_MIP_Strategy_Dive_3_iter_1.prm
========================

Selected objective sense:  MINIMIZE
Selected objective  name:  R1921
Selected RHS        name:  B
Selected bound      name:  BOUND
Version identifier: 22.1.2.0 | 2024-11-26 | 0edbb82fd
CPXPARAM_Threads                                 8
CPXPARAM_Parallel                                1
CPXPARAM_MIP_Cuts_Cliques                        -1
CPXPARAM_MIP_Cuts_FlowCovers                     2
CPXPARAM_MIP_Cuts_Implied                        2
CPXPARAM_MIP_Cuts_GUBCovers                      -1
CPXPARAM_MIP_Limits_GomoryCand                   50
CPXPARAM_MIP_Cuts_Gomory                         1
CPXPARAM_MIP_Cuts_PathCut                        -1
CPXPARAM_MIP_Cuts_MIRCut                         2
CPXPARAM_MIP_Cuts_Disjunctive                    -1
CPXPARAM_Emphasis_MIP                            1
CPXPARAM_MIP_Strategy_Dive                       3
CPXPARAM_DetTimeLimit                            10000
Tried aggregator 1 time.
MIP Presolve eliminated 595 rows and 0 columns.
MIP Presolve added 1190 rows and 0 columns.
MIP Presolve modified 10 coefficients.
Reduced MIP has 2515 rows, 2985 columns, and 7755 nonzeros.
Reduced MIP has 1195 binaries, 0 generals, 0 SOSs, and 0 indicators.
Presolve time = 0.00 sec. (4.53 ticks)
Probing fixed 0 vars, tightened 5487 bounds.
Probing time = 0.01 sec. (18.38 ticks)
Tried aggregator 2 times.
Detecting symmetries...
MIP Presolve modified 1206 coefficients.
Aggregator did 10 substitutions.
Reduced MIP has 2505 rows, 2975 columns, and 7735 nonzeros.
Reduced MIP has 1195 binaries, 0 generals, 0 SOSs, and 0 indicators.
Presolve time = 0.00 sec. (6.66 ticks)
Probing fixed 0 vars, tightened 2401 bounds.
Probing time = 0.00 sec. (6.41 ticks)
Clique table members: 190.
MIP emphasis: integer feasibility.
MIP search method: dynamic search.
Parallel mode: deterministic, using up to 8 threads.
Root relaxation solution time = 0.01 sec. (9.71 ticks)

        Nodes                                         Cuts/
   Node  Left     Objective  IInf  Best Integer    Best Bound    ItCnt     Gap

      0     0   348385.3466   472                 348385.3466      882         
      0     0   572313.5958   462                   Cuts: 726     1889         
      0     0   831822.5913   565                   Cuts: 726     2717         
      0     0   945966.5491   640                   Cuts: 726     3332         
*     0+    0                       1.01740e+07   945966.5491            90.70%
*     0+    0                      7973370.0000   945966.5491            88.14%
Detecting symmetries...
      0     2   945966.5491   640  7973370.0000   945966.5491     3332   88.14%
Elapsed time = 0.36 sec. (495.68 ticks, tree = 0.02 MB, solutions = 2)
    168   163  1038067.3548   646  7973370.0000   946669.2264     8310   88.13%
    535   468  1155506.2602   482  7973370.0000   946669.2264    21921   88.13%
    876   707  1134485.3801   489  7973370.0000   946669.2264    25886   88.13%
   1459  1270  1546191.9405   209  7973370.0000   947692.7413    35578   88.11%

Performing restart 1

Repeating presolve.
Tried aggregator 1 time.
MIP Presolve modified 1215 coefficients.
Reduced MIP has 2505 rows, 2975 columns, and 7735 nonzeros.
Reduced MIP has 1195 binaries, 0 generals, 0 SOSs, and 0 indicators.
Presolve time = 0.00 sec. (3.85 ticks)
Tried aggregator 1 time.
MIP Presolve modified 1030 coefficients.
Reduced MIP has 2505 rows, 2975 columns, and 7735 nonzeros.
Reduced MIP has 1195 binaries, 0 generals, 0 SOSs, and 0 indicators.
Presolve time = 0.00 sec. (5.12 ticks)
Represolve time = 0.02 sec. (18.62 ticks)
*  1689+    0                      6644005.0000  1005629.3352            84.86%
   1689     0  1129122.4532   650  6644005.0000     Cuts: 726    45589   83.01%
   1689     0  1199932.4969   694  6644005.0000     Cuts: 726    46464   81.94%
   1689     0  1258219.4445   697  6644005.0000     Cuts: 726    47389   81.06%
   1689     2  1258219.4445   697  6644005.0000  1258219.4445    47389   81.06%
   1709    22  1275403.2157   575  6644005.0000  1258246.2224    48095   81.06%
   1741    54  1293301.4518   513  6644005.0000  1258246.2224    48978   81.06%
   1754     7  1264232.5947   654  6644005.0000  1258246.2224    47762   81.06%
   1761    65  1320802.4054   736  6644005.0000  1258246.2224    50610   81.06%
   1957   188  1342646.3447   708  6644005.0000  1265523.1601    79794   80.95%
Elapsed time = 4.72 sec. (5550.69 ticks, tree = 0.39 MB, solutions = 3)
*  2256+  378                      1826916.0000  1265523.1601            30.73%
*  2490+  690                      1799436.0000  1265523.1601            29.67%
*  2553+  726                      1796244.0000  1265523.1601            29.55%
   2646   789  1525557.8037   333  1796244.0000  1265523.1601   111174   29.55%
*  3775  1511      integral     0  1756960.0000  1265523.1601   134946   27.97%
*  3784  1809      integral     0  1742840.0000  1265523.1601   142477   27.39%
*  4045+ 1696                      1716453.0000  1265523.1601            26.27%
*  4060  1955      integral     0  1702333.0000  1265523.1601   150596   25.66%
*  4370  2148      integral     0  1700726.0000  1265523.1601   157661   25.59%
*  4399+ 1801                      1700353.0000  1265523.1601            25.57%
*  4399+ 1800                      1664602.0000  1265523.1601            23.97%
*  4400+ 1800                      1663250.0000  1265523.1601            23.91%
   4874  2321  1481425.1314   446  1663250.0000  1265523.1601   183050   23.91%
   6133  3442  1617824.3835   151  1663250.0000  1265523.1601   226561   23.91%
*  6675+ 4013                      1639308.0000  1265523.1601            22.80%

Cover cuts applied:  20
Implied bound cuts applied:  14
Flow cuts applied:  808
Mixed integer rounding cuts applied:  1111
Multi commodity flow cuts applied:  22
Lift and project cuts applied:  11
Gomory fractional cuts applied:  2

Root node processing (before b&c):
  Real time             =    0.36 sec. (493.60 ticks)
Parallel b&c, 8 threads:
  Real time             =    9.16 sec. (9509.46 ticks)
  Sync time (average)   =    1.62 sec.
  Wait time (average)   =    0.00 sec.
                          ------------
Total (root+branch&cut) =    9.52 sec. (10003.06 ticks)
Gap: 22.8%
Upper bound: 1.63931e+06
Lower bound: 1.26552e+06
End of CPLEX run. Time: 9.5171 seconds

===== New CPLEX run =====
Instance: /home/yorig/tuner/mpils-tests/instances/miplib/easy/lotsize.mps
Config: /scratch/yorig/mpils-results-grid-ticks-10000/easy/16proc/seed-9/4_lotsize_seed-9_20260425_202405/expansion/config_param_CPXPARAM_MIP_Limits_ProbeTime_0_iter_1.prm
========================

Selected objective sense:  MINIMIZE
Selected objective  name:  R1921
Selected RHS        name:  B
Selected bound      name:  BOUND
Version identifier: 22.1.2.0 | 2024-11-26 | 0edbb82fd
CPXPARAM_Threads                                 8
CPXPARAM_Parallel                                1
CPXPARAM_MIP_Cuts_Cliques                        -1
CPXPARAM_MIP_Cuts_FlowCovers                     2
CPXPARAM_MIP_Cuts_Implied                        2
CPXPARAM_MIP_Cuts_GUBCovers                      -1
CPXPARAM_MIP_Limits_GomoryCand                   50
CPXPARAM_MIP_Cuts_Gomory                         1
CPXPARAM_MIP_Cuts_PathCut                        -1
CPXPARAM_MIP_Cuts_MIRCut                         2
CPXPARAM_MIP_Cuts_Disjunctive                    -1
CPXPARAM_Emphasis_MIP                            1
CPXPARAM_DetTimeLimit                            10000
CPXPARAM_MIP_Limits_ProbeTime                    0
Tried aggregator 1 time.
MIP Presolve eliminated 595 rows and 0 columns.
MIP Presolve added 1190 rows and 0 columns.
MIP Presolve modified 10 coefficients.
Reduced MIP has 2515 rows, 2985 columns, and 7755 nonzeros.
Reduced MIP has 1195 binaries, 0 generals, 0 SOSs, and 0 indicators.
Presolve time = 0.00 sec. (4.53 ticks)
Tried aggregator 1 time.
Detecting symmetries...
MIP Presolve modified 270 coefficients.
Reduced MIP has 2515 rows, 2985 columns, and 7755 nonzeros.
Reduced MIP has 1195 binaries, 0 generals, 0 SOSs, and 0 indicators.
Presolve time = 0.00 sec. (5.03 ticks)
Clique table members: 125.
MIP emphasis: integer feasibility.
MIP search method: dynamic search.
Parallel mode: deterministic, using up to 8 threads.
Root relaxation solution time = 0.01 sec. (9.97 ticks)

        Nodes                                         Cuts/
   Node  Left     Objective  IInf  Best Integer    Best Bound    ItCnt     Gap

      0     0   348385.3466   473                 348385.3466      895         
      0     0   567388.0786   468                   Cuts: 728     1920         
      0     0   832689.6844   576                   Cuts: 728     2740         
*     0+    0                       1.01863e+07   832689.6844            91.83%
*     0+    0                      7916314.0000   832689.6844            89.48%
      0     0   945618.7718   670  7916314.0000     Cuts: 728     3391   88.05%
Detecting symmetries...
      0     2   947093.9257   666  7916314.0000   945618.7718     3391   88.05%
Elapsed time = 0.32 sec. (493.25 ticks, tree = 0.02 MB, solutions = 2)
    215   104   975743.9245   600  7916314.0000   949997.5286     5358   88.00%
    542   501  1044019.7835   592  7916314.0000   949997.5286    19717   88.00%
   1261   962  1367465.2818   394  7916314.0000   949997.5286    27812   88.00%

Performing restart 1

Repeating presolve.
Tried aggregator 2 times.
MIP Presolve modified 1355 coefficients.
Aggregator did 7 substitutions.
Reduced MIP has 2508 rows, 2978 columns, and 7741 nonzeros.
Reduced MIP has 1195 binaries, 0 generals, 0 SOSs, and 0 indicators.
Presolve time = 0.00 sec. (5.49 ticks)
Tried aggregator 1 time.
MIP Presolve modified 77 coefficients.
Reduced MIP has 2508 rows, 2978 columns, and 7741 nonzeros.
Reduced MIP has 1195 binaries, 0 generals, 0 SOSs, and 0 indicators.
Presolve time = 0.00 sec. (5.51 ticks)
Represolve time = 0.01 sec. (15.15 ticks)
*  1726+    0                      7463572.0000  1006220.4633            86.52%
   1726     0  1128512.3404   720  7463572.0000     Cuts: 727    44194   84.88%
   1726     0  1211382.7494   695  7463572.0000     Cuts: 727    45098   83.77%
   1726     0  1266715.3021   720  7463572.0000     Cuts: 727    46029   83.03%
   1726     2  1266715.3021   720  7463572.0000  1266715.3021    46029   83.03%
   1741    17  1288259.1460   643  7463572.0000  1266721.8484    46774   83.03%
   1766    42  1293322.3375   623  7463572.0000  1266721.8484    47499   83.03%
   1787     7  1272878.2470   661  7463572.0000  1266721.8484    46273   83.03%
   1795    66  1383516.7794   684  7463572.0000  1266721.8484    50751   83.03%
   1801    72  1394844.7926   669  7463572.0000  1266814.9793    55172   83.03%
   1943   133  1441906.3637   585  7463572.0000  1277926.9478    86304   82.88%
Elapsed time = 3.91 sec. (5686.56 ticks, tree = 0.18 MB, solutions = 3)
*  2062+  161                      2283368.0000  1277926.9478            44.03%
   2612   529  1448088.9641   491  2283368.0000  1277926.9478   111222   44.03%
*  3239+ 1228                      1803050.0000  1277926.9478            29.12%
*  3250  1289      integral     0  1775238.0000  1277926.9478   146090   28.01%
*  4057  1786      integral     0  1747715.0000  1279631.6722   163799   26.78%
   4556  2425  1668883.9065    89  1747715.0000  1279631.6722   188675   26.78%
*  4635+ 2317                      1690999.0000  1279631.6722            24.33%
*  4655+ 2317                      1618941.0000  1279631.6722            20.96%
*  4663+ 2317                      1612631.0000  1279631.6722            20.65%
*  4674+ 2317                      1612021.0000  1279631.6722            20.62%
*  4679+ 2317                      1611791.0000  1279631.6722            20.61%
   5346  2350  1489513.7033   578  1611791.0000  1279631.6722   225892   20.61%

Cover cuts applied:  16
Implied bound cuts applied:  3
Flow cuts applied:  811
Mixed integer rounding cuts applied:  1158
Multi commodity flow cuts applied:  25
Lift and project cuts applied:  4
Gomory fractional cuts applied:  2

Root node processing (before b&c):
  Real time             =    0.31 sec. (491.05 ticks)
Parallel b&c, 8 threads:
  Real time             =    8.23 sec. (9512.53 ticks)
  Sync time (average)   =    1.84 sec.
  Wait time (average)   =    0.00 sec.
                          ------------
Total (root+branch&cut) =    8.55 sec. (10003.59 ticks)
Gap: 20.61%
Upper bound: 1.61179e+06
Lower bound: 1.27963e+06
End of CPLEX run. Time: 8.54933 seconds
